c ind 1 2 3 4 5 6 7 8 9 10 11 12 13 14 15 16 17 18 19 20 21 22 23 24 25 26 27 28 29 30 31 32 33 34 35 36 37 38 39 40 41 42 43 44 45 46 47 48 49 50 51 52 53 54 55 56 57 58 59 60 61 62 63 64 0
p cnf 792 2152              
-33 73 0
-34 73 0
-35 73 0
-36 73 0
-73 -82 0
1 -81 0
2 -81 0
3 -81 0
4 -81 0
81 -82 0
-5 -88 0
6 85 0
-2 85 0
-6 2 -85 0
85 -88 0
7 86 0
-6 -83 0
3 -83 0
6 -3 83 0
-83 86 0
-7 83 -86 0
86 -88 0
8 87 0
-7 -84 0
4 -84 0
7 -4 84 0
-84 87 0
-8 84 -87 0
87 -88 0
88 -93 0
2 89 0
-6 89 0
-2 6 -89 0
89 -92 0
83 90 0
-7 90 0
-83 7 -90 0
90 -92 0
84 91 0
-8 91 0
-84 8 -91 0
91 -92 0
92 -93 0
93 -103 0
38 94 0
-34 94 0
-38 34 -94 0
94 -97 0
39 95 0
-35 95 0
-39 35 -95 0
95 -97 0
40 96 0
-36 96 0
-40 36 -96 0
96 -97 0
97 -102 0
37 -101 0
34 98 0
-38 98 0
-34 38 -98 0
98 -101 0
35 99 0
-39 99 0
-35 39 -99 0
99 -101 0
36 100 0
-40 100 0
-36 40 -100 0
100 -101 0
101 -102 0
102 -103 0
3 -119 0
-7 -112 0
-5 -112 0
85 -112 0
87 -112 0
7 5 -85 -87 112 0
112 -114 0
89 -113 0
91 -113 0
-89 -91 113 0
113 -114 0
-112 -113 114 0
114 -118 0
94 -115 0
96 -115 0
-94 -96 115 0
115 -117 0
37 -116 0
39 -116 0
98 -116 0
100 -116 0
-37 -39 -98 -100 116 0
116 -117 0
-115 -116 117 0
117 -118 0
-114 -117 118 0
118 -119 0
-3 -118 119 0
2 -111 0
-6 -104 0
-5 -104 0
86 -104 0
87 -104 0
6 5 -86 -87 104 0
104 -106 0
90 -105 0
91 -105 0
-90 -91 105 0
105 -106 0
-104 -105 106 0
106 -110 0
95 -107 0
96 -107 0
-95 -96 107 0
107 -109 0
37 -108 0
38 -108 0
99 -108 0
100 -108 0
-37 -38 -99 -100 108 0
108 -109 0
-107 -108 109 0
109 -110 0
-106 -109 110 0
110 -111 0
-2 -110 111 0
-119 -111 -128 0
128 -132 0
-111 129 0
-119 129 0
111 119 -129 0
4 -127 0
-8 -120 0
-5 -120 0
85 -120 0
86 -120 0
8 5 -85 -86 120 0
120 -122 0
89 -121 0
90 -121 0
-89 -90 121 0
121 -122 0
-120 -121 122 0
122 -126 0
94 -123 0
95 -123 0
-94 -95 123 0
123 -125 0
37 -124 0
40 -124 0
98 -124 0
99 -124 0
-37 -40 -98 -99 124 0
124 -125 0
-123 -124 125 0
125 -126 0
-122 -125 126 0
126 -127 0
-4 -126 127 0
-129 -127 -130 0
130 -132 0
127 129 -131 0
131 -132 0
103 132 -133 0
-1 133 -134 0
134 -183 0
-37 -139 0
94 -139 0
39 137 0
-38 -135 0
35 -135 0
38 -35 135 0
-135 137 0
-39 135 -137 0
137 -139 0
40 138 0
-39 -136 0
36 -136 0
39 -36 136 0
-136 138 0
-40 136 -138 0
138 -139 0
139 -143 0
98 -142 0
135 140 0
-39 140 0
-135 39 -140 0
140 -142 0
136 141 0
-40 141 0
-136 40 -141 0
141 -142 0
142 -143 0
143 -151 0
85 -146 0
7 144 0
-3 144 0
-7 3 -144 0
144 -146 0
8 145 0
-4 145 0
-8 4 -145 0
145 -146 0
146 -150 0
5 -149 0
89 -149 0
3 147 0
-7 147 0
-3 7 -147 0
147 -149 0
4 148 0
-8 148 0
-4 8 -148 0
148 -149 0
149 -150 0
150 -151 0
35 -167 0
-39 -160 0
-37 -160 0
94 -160 0
138 -160 0
39 37 -94 -138 160 0
160 -162 0
98 -161 0
141 -161 0
-98 -141 161 0
161 -162 0
-160 -161 162 0
162 -166 0
85 -163 0
145 -163 0
-85 -145 163 0
163 -165 0
5 -164 0
7 -164 0
89 -164 0
148 -164 0
-5 -7 -89 -148 164 0
164 -165 0
-163 -164 165 0
165 -166 0
-162 -165 166 0
166 -167 0
-35 -166 167 0
34 -159 0
-38 -152 0
-37 -152 0
137 -152 0
138 -152 0
38 37 -137 -138 152 0
152 -154 0
140 -153 0
141 -153 0
-140 -141 153 0
153 -154 0
-152 -153 154 0
154 -158 0
144 -155 0
145 -155 0
-144 -145 155 0
155 -157 0
5 -156 0
6 -156 0
147 -156 0
148 -156 0
-5 -6 -147 -148 156 0
156 -157 0
-155 -156 157 0
157 -158 0
-154 -157 158 0
158 -159 0
-34 -158 159 0
-167 -159 -176 0
176 -180 0
-159 177 0
-167 177 0
159 167 -177 0
36 -175 0
-40 -168 0
-37 -168 0
94 -168 0
137 -168 0
40 37 -94 -137 168 0
168 -170 0
98 -169 0
140 -169 0
-98 -140 169 0
169 -170 0
-168 -169 170 0
170 -174 0
85 -171 0
144 -171 0
-85 -144 171 0
171 -173 0
5 -172 0
8 -172 0
89 -172 0
147 -172 0
-5 -8 -89 -147 172 0
172 -173 0
-171 -172 173 0
173 -174 0
-170 -173 174 0
174 -175 0
-36 -174 175 0
-177 -175 -178 0
178 -180 0
175 177 -179 0
179 -180 0
151 180 -181 0
1 181 -182 0
182 -183 0
183 -790 0
-9 -189 0
10 186 0
-6 186 0
-10 6 -186 0
186 -189 0
11 187 0
-10 -184 0
7 -184 0
10 -7 184 0
-184 187 0
-11 184 -187 0
187 -189 0
12 188 0
-11 -185 0
8 -185 0
11 -8 185 0
-185 188 0
-12 185 -188 0
188 -189 0
189 -194 0
6 190 0
-10 190 0
-6 10 -190 0
190 -193 0
184 191 0
-11 191 0
-184 11 -191 0
191 -193 0
185 192 0
-12 192 0
-185 12 -192 0
192 -193 0
193 -194 0
194 -204 0
42 195 0
-38 195 0
-42 38 -195 0
195 -198 0
43 196 0
-39 196 0
-43 39 -196 0
196 -198 0
44 197 0
-40 197 0
-44 40 -197 0
197 -198 0
198 -203 0
41 -202 0
38 199 0
-42 199 0
-38 42 -199 0
199 -202 0
39 200 0
-43 200 0
-39 43 -200 0
200 -202 0
40 201 0
-44 201 0
-40 44 -201 0
201 -202 0
202 -203 0
203 -204 0
7 -220 0
-11 -213 0
-9 -213 0
186 -213 0
188 -213 0
11 9 -186 -188 213 0
213 -215 0
190 -214 0
192 -214 0
-190 -192 214 0
214 -215 0
-213 -214 215 0
215 -219 0
195 -216 0
197 -216 0
-195 -197 216 0
216 -218 0
41 -217 0
43 -217 0
199 -217 0
201 -217 0
-41 -43 -199 -201 217 0
217 -218 0
-216 -217 218 0
218 -219 0
-215 -218 219 0
219 -220 0
-7 -219 220 0
6 -212 0
-10 -205 0
-9 -205 0
187 -205 0
188 -205 0
10 9 -187 -188 205 0
205 -207 0
191 -206 0
192 -206 0
-191 -192 206 0
206 -207 0
-205 -206 207 0
207 -211 0
196 -208 0
197 -208 0
-196 -197 208 0
208 -210 0
41 -209 0
42 -209 0
200 -209 0
201 -209 0
-41 -42 -200 -201 209 0
209 -210 0
-208 -209 210 0
210 -211 0
-207 -210 211 0
211 -212 0
-6 -211 212 0
-220 -212 -229 0
229 -233 0
-212 230 0
-220 230 0
212 220 -230 0
8 -228 0
-12 -221 0
-9 -221 0
186 -221 0
187 -221 0
12 9 -186 -187 221 0
221 -223 0
190 -222 0
191 -222 0
-190 -191 222 0
222 -223 0
-221 -222 223 0
223 -227 0
195 -224 0
196 -224 0
-195 -196 224 0
224 -226 0
41 -225 0
44 -225 0
199 -225 0
200 -225 0
-41 -44 -199 -200 225 0
225 -226 0
-224 -225 226 0
226 -227 0
-223 -226 227 0
227 -228 0
-8 -227 228 0
-230 -228 -231 0
231 -233 0
228 230 -232 0
232 -233 0
204 233 -234 0
-5 234 -235 0
235 -284 0
-41 -240 0
195 -240 0
43 238 0
-42 -236 0
39 -236 0
42 -39 236 0
-236 238 0
-43 236 -238 0
238 -240 0
44 239 0
-43 -237 0
40 -237 0
43 -40 237 0
-237 239 0
-44 237 -239 0
239 -240 0
240 -244 0
199 -243 0
236 241 0
-43 241 0
-236 43 -241 0
241 -243 0
237 242 0
-44 242 0
-237 44 -242 0
242 -243 0
243 -244 0
244 -252 0
186 -247 0
11 245 0
-7 245 0
-11 7 -245 0
245 -247 0
12 246 0
-8 246 0
-12 8 -246 0
246 -247 0
247 -251 0
9 -250 0
190 -250 0
7 248 0
-11 248 0
-7 11 -248 0
248 -250 0
8 249 0
-12 249 0
-8 12 -249 0
249 -250 0
250 -251 0
251 -252 0
39 -268 0
-43 -261 0
-41 -261 0
195 -261 0
239 -261 0
43 41 -195 -239 261 0
261 -263 0
199 -262 0
242 -262 0
-199 -242 262 0
262 -263 0
-261 -262 263 0
263 -267 0
186 -264 0
246 -264 0
-186 -246 264 0
264 -266 0
9 -265 0
11 -265 0
190 -265 0
249 -265 0
-9 -11 -190 -249 265 0
265 -266 0
-264 -265 266 0
266 -267 0
-263 -266 267 0
267 -268 0
-39 -267 268 0
38 -260 0
-42 -253 0
-41 -253 0
238 -253 0
239 -253 0
42 41 -238 -239 253 0
253 -255 0
241 -254 0
242 -254 0
-241 -242 254 0
254 -255 0
-253 -254 255 0
255 -259 0
245 -256 0
246 -256 0
-245 -246 256 0
256 -258 0
9 -257 0
10 -257 0
248 -257 0
249 -257 0
-9 -10 -248 -249 257 0
257 -258 0
-256 -257 258 0
258 -259 0
-255 -258 259 0
259 -260 0
-38 -259 260 0
-268 -260 -277 0
277 -281 0
-260 278 0
-268 278 0
260 268 -278 0
40 -276 0
-44 -269 0
-41 -269 0
195 -269 0
238 -269 0
44 41 -195 -238 269 0
269 -271 0
199 -270 0
241 -270 0
-199 -241 270 0
270 -271 0
-269 -270 271 0
271 -275 0
186 -272 0
245 -272 0
-186 -245 272 0
272 -274 0
9 -273 0
12 -273 0
190 -273 0
248 -273 0
-9 -12 -190 -248 273 0
273 -274 0
-272 -273 274 0
274 -275 0
-271 -274 275 0
275 -276 0
-40 -275 276 0
-278 -276 -279 0
279 -281 0
276 278 -280 0
280 -281 0
252 281 -282 0
5 282 -283 0
283 -284 0
284 -790 0
-13 -290 0
14 287 0
-10 287 0
-14 10 -287 0
287 -290 0
15 288 0
-14 -285 0
11 -285 0
14 -11 285 0
-285 288 0
-15 285 -288 0
288 -290 0
16 289 0
-15 -286 0
12 -286 0
15 -12 286 0
-286 289 0
-16 286 -289 0
289 -290 0
290 -295 0
10 291 0
-14 291 0
-10 14 -291 0
291 -294 0
285 292 0
-15 292 0
-285 15 -292 0
292 -294 0
286 293 0
-16 293 0
-286 16 -293 0
293 -294 0
294 -295 0
295 -305 0
46 296 0
-42 296 0
-46 42 -296 0
296 -299 0
47 297 0
-43 297 0
-47 43 -297 0
297 -299 0
48 298 0
-44 298 0
-48 44 -298 0
298 -299 0
299 -304 0
45 -303 0
42 300 0
-46 300 0
-42 46 -300 0
300 -303 0
43 301 0
-47 301 0
-43 47 -301 0
301 -303 0
44 302 0
-48 302 0
-44 48 -302 0
302 -303 0
303 -304 0
304 -305 0
11 -321 0
-15 -314 0
-13 -314 0
287 -314 0
289 -314 0
15 13 -287 -289 314 0
314 -316 0
291 -315 0
293 -315 0
-291 -293 315 0
315 -316 0
-314 -315 316 0
316 -320 0
296 -317 0
298 -317 0
-296 -298 317 0
317 -319 0
45 -318 0
47 -318 0
300 -318 0
302 -318 0
-45 -47 -300 -302 318 0
318 -319 0
-317 -318 319 0
319 -320 0
-316 -319 320 0
320 -321 0
-11 -320 321 0
10 -313 0
-14 -306 0
-13 -306 0
288 -306 0
289 -306 0
14 13 -288 -289 306 0
306 -308 0
292 -307 0
293 -307 0
-292 -293 307 0
307 -308 0
-306 -307 308 0
308 -312 0
297 -309 0
298 -309 0
-297 -298 309 0
309 -311 0
45 -310 0
46 -310 0
301 -310 0
302 -310 0
-45 -46 -301 -302 310 0
310 -311 0
-309 -310 311 0
311 -312 0
-308 -311 312 0
312 -313 0
-10 -312 313 0
-321 -313 -330 0
330 -334 0
-313 331 0
-321 331 0
313 321 -331 0
12 -329 0
-16 -322 0
-13 -322 0
287 -322 0
288 -322 0
16 13 -287 -288 322 0
322 -324 0
291 -323 0
292 -323 0
-291 -292 323 0
323 -324 0
-322 -323 324 0
324 -328 0
296 -325 0
297 -325 0
-296 -297 325 0
325 -327 0
45 -326 0
48 -326 0
300 -326 0
301 -326 0
-45 -48 -300 -301 326 0
326 -327 0
-325 -326 327 0
327 -328 0
-324 -327 328 0
328 -329 0
-12 -328 329 0
-331 -329 -332 0
332 -334 0
329 331 -333 0
333 -334 0
305 334 -335 0
-9 335 -336 0
336 -385 0
-45 -341 0
296 -341 0
47 339 0
-46 -337 0
43 -337 0
46 -43 337 0
-337 339 0
-47 337 -339 0
339 -341 0
48 340 0
-47 -338 0
44 -338 0
47 -44 338 0
-338 340 0
-48 338 -340 0
340 -341 0
341 -345 0
300 -344 0
337 342 0
-47 342 0
-337 47 -342 0
342 -344 0
338 343 0
-48 343 0
-338 48 -343 0
343 -344 0
344 -345 0
345 -353 0
287 -348 0
15 346 0
-11 346 0
-15 11 -346 0
346 -348 0
16 347 0
-12 347 0
-16 12 -347 0
347 -348 0
348 -352 0
13 -351 0
291 -351 0
11 349 0
-15 349 0
-11 15 -349 0
349 -351 0
12 350 0
-16 350 0
-12 16 -350 0
350 -351 0
351 -352 0
352 -353 0
43 -369 0
-47 -362 0
-45 -362 0
296 -362 0
340 -362 0
47 45 -296 -340 362 0
362 -364 0
300 -363 0
343 -363 0
-300 -343 363 0
363 -364 0
-362 -363 364 0
364 -368 0
287 -365 0
347 -365 0
-287 -347 365 0
365 -367 0
13 -366 0
15 -366 0
291 -366 0
350 -366 0
-13 -15 -291 -350 366 0
366 -367 0
-365 -366 367 0
367 -368 0
-364 -367 368 0
368 -369 0
-43 -368 369 0
42 -361 0
-46 -354 0
-45 -354 0
339 -354 0
340 -354 0
46 45 -339 -340 354 0
354 -356 0
342 -355 0
343 -355 0
-342 -343 355 0
355 -356 0
-354 -355 356 0
356 -360 0
346 -357 0
347 -357 0
-346 -347 357 0
357 -359 0
13 -358 0
14 -358 0
349 -358 0
350 -358 0
-13 -14 -349 -350 358 0
358 -359 0
-357 -358 359 0
359 -360 0
-356 -359 360 0
360 -361 0
-42 -360 361 0
-369 -361 -378 0
378 -382 0
-361 379 0
-369 379 0
361 369 -379 0
44 -377 0
-48 -370 0
-45 -370 0
296 -370 0
339 -370 0
48 45 -296 -339 370 0
370 -372 0
300 -371 0
342 -371 0
-300 -342 371 0
371 -372 0
-370 -371 372 0
372 -376 0
287 -373 0
346 -373 0
-287 -346 373 0
373 -375 0
13 -374 0
16 -374 0
291 -374 0
349 -374 0
-13 -16 -291 -349 374 0
374 -375 0
-373 -374 375 0
375 -376 0
-372 -375 376 0
376 -377 0
-44 -376 377 0
-379 -377 -380 0
380 -382 0
377 379 -381 0
381 -382 0
353 382 -383 0
9 383 -384 0
384 -385 0
385 -790 0
-17 -391 0
18 388 0
-14 388 0
-18 14 -388 0
388 -391 0
19 389 0
-18 -386 0
15 -386 0
18 -15 386 0
-386 389 0
-19 386 -389 0
389 -391 0
20 390 0
-19 -387 0
16 -387 0
19 -16 387 0
-387 390 0
-20 387 -390 0
390 -391 0
391 -396 0
14 392 0
-18 392 0
-14 18 -392 0
392 -395 0
386 393 0
-19 393 0
-386 19 -393 0
393 -395 0
387 394 0
-20 394 0
-387 20 -394 0
394 -395 0
395 -396 0
396 -406 0
50 397 0
-46 397 0
-50 46 -397 0
397 -400 0
51 398 0
-47 398 0
-51 47 -398 0
398 -400 0
52 399 0
-48 399 0
-52 48 -399 0
399 -400 0
400 -405 0
49 -404 0
46 401 0
-50 401 0
-46 50 -401 0
401 -404 0
47 402 0
-51 402 0
-47 51 -402 0
402 -404 0
48 403 0
-52 403 0
-48 52 -403 0
403 -404 0
404 -405 0
405 -406 0
15 -422 0
-19 -415 0
-17 -415 0
388 -415 0
390 -415 0
19 17 -388 -390 415 0
415 -417 0
392 -416 0
394 -416 0
-392 -394 416 0
416 -417 0
-415 -416 417 0
417 -421 0
397 -418 0
399 -418 0
-397 -399 418 0
418 -420 0
49 -419 0
51 -419 0
401 -419 0
403 -419 0
-49 -51 -401 -403 419 0
419 -420 0
-418 -419 420 0
420 -421 0
-417 -420 421 0
421 -422 0
-15 -421 422 0
14 -414 0
-18 -407 0
-17 -407 0
389 -407 0
390 -407 0
18 17 -389 -390 407 0
407 -409 0
393 -408 0
394 -408 0
-393 -394 408 0
408 -409 0
-407 -408 409 0
409 -413 0
398 -410 0
399 -410 0
-398 -399 410 0
410 -412 0
49 -411 0
50 -411 0
402 -411 0
403 -411 0
-49 -50 -402 -403 411 0
411 -412 0
-410 -411 412 0
412 -413 0
-409 -412 413 0
413 -414 0
-14 -413 414 0
-422 -414 -431 0
431 -435 0
-414 432 0
-422 432 0
414 422 -432 0
16 -430 0
-20 -423 0
-17 -423 0
388 -423 0
389 -423 0
20 17 -388 -389 423 0
423 -425 0
392 -424 0
393 -424 0
-392 -393 424 0
424 -425 0
-423 -424 425 0
425 -429 0
397 -426 0
398 -426 0
-397 -398 426 0
426 -428 0
49 -427 0
52 -427 0
401 -427 0
402 -427 0
-49 -52 -401 -402 427 0
427 -428 0
-426 -427 428 0
428 -429 0
-425 -428 429 0
429 -430 0
-16 -429 430 0
-432 -430 -433 0
433 -435 0
430 432 -434 0
434 -435 0
406 435 -436 0
-13 436 -437 0
437 -486 0
-49 -442 0
397 -442 0
51 440 0
-50 -438 0
47 -438 0
50 -47 438 0
-438 440 0
-51 438 -440 0
440 -442 0
52 441 0
-51 -439 0
48 -439 0
51 -48 439 0
-439 441 0
-52 439 -441 0
441 -442 0
442 -446 0
401 -445 0
438 443 0
-51 443 0
-438 51 -443 0
443 -445 0
439 444 0
-52 444 0
-439 52 -444 0
444 -445 0
445 -446 0
446 -454 0
388 -449 0
19 447 0
-15 447 0
-19 15 -447 0
447 -449 0
20 448 0
-16 448 0
-20 16 -448 0
448 -449 0
449 -453 0
17 -452 0
392 -452 0
15 450 0
-19 450 0
-15 19 -450 0
450 -452 0
16 451 0
-20 451 0
-16 20 -451 0
451 -452 0
452 -453 0
453 -454 0
47 -470 0
-51 -463 0
-49 -463 0
397 -463 0
441 -463 0
51 49 -397 -441 463 0
463 -465 0
401 -464 0
444 -464 0
-401 -444 464 0
464 -465 0
-463 -464 465 0
465 -469 0
388 -466 0
448 -466 0
-388 -448 466 0
466 -468 0
17 -467 0
19 -467 0
392 -467 0
451 -467 0
-17 -19 -392 -451 467 0
467 -468 0
-466 -467 468 0
468 -469 0
-465 -468 469 0
469 -470 0
-47 -469 470 0
46 -462 0
-50 -455 0
-49 -455 0
440 -455 0
441 -455 0
50 49 -440 -441 455 0
455 -457 0
443 -456 0
444 -456 0
-443 -444 456 0
456 -457 0
-455 -456 457 0
457 -461 0
447 -458 0
448 -458 0
-447 -448 458 0
458 -460 0
17 -459 0
18 -459 0
450 -459 0
451 -459 0
-17 -18 -450 -451 459 0
459 -460 0
-458 -459 460 0
460 -461 0
-457 -460 461 0
461 -462 0
-46 -461 462 0
-470 -462 -479 0
479 -483 0
-462 480 0
-470 480 0
462 470 -480 0
48 -478 0
-52 -471 0
-49 -471 0
397 -471 0
440 -471 0
52 49 -397 -440 471 0
471 -473 0
401 -472 0
443 -472 0
-401 -443 472 0
472 -473 0
-471 -472 473 0
473 -477 0
388 -474 0
447 -474 0
-388 -447 474 0
474 -476 0
17 -475 0
20 -475 0
392 -475 0
450 -475 0
-17 -20 -392 -450 475 0
475 -476 0
-474 -475 476 0
476 -477 0
-473 -476 477 0
477 -478 0
-48 -477 478 0
-480 -478 -481 0
481 -483 0
478 480 -482 0
482 -483 0
454 483 -484 0
13 484 -485 0
485 -486 0
486 -790 0
-21 -492 0
22 489 0
-18 489 0
-22 18 -489 0
489 -492 0
23 490 0
-22 -487 0
19 -487 0
22 -19 487 0
-487 490 0
-23 487 -490 0
490 -492 0
24 491 0
-23 -488 0
20 -488 0
23 -20 488 0
-488 491 0
-24 488 -491 0
491 -492 0
492 -497 0
18 493 0
-22 493 0
-18 22 -493 0
493 -496 0
487 494 0
-23 494 0
-487 23 -494 0
494 -496 0
488 495 0
-24 495 0
-488 24 -495 0
495 -496 0
496 -497 0
497 -507 0
54 498 0
-50 498 0
-54 50 -498 0
498 -501 0
55 499 0
-51 499 0
-55 51 -499 0
499 -501 0
56 500 0
-52 500 0
-56 52 -500 0
500 -501 0
501 -506 0
53 -505 0
50 502 0
-54 502 0
-50 54 -502 0
502 -505 0
51 503 0
-55 503 0
-51 55 -503 0
503 -505 0
52 504 0
-56 504 0
-52 56 -504 0
504 -505 0
505 -506 0
506 -507 0
19 -523 0
-23 -516 0
-21 -516 0
489 -516 0
491 -516 0
23 21 -489 -491 516 0
516 -518 0
493 -517 0
495 -517 0
-493 -495 517 0
517 -518 0
-516 -517 518 0
518 -522 0
498 -519 0
500 -519 0
-498 -500 519 0
519 -521 0
53 -520 0
55 -520 0
502 -520 0
504 -520 0
-53 -55 -502 -504 520 0
520 -521 0
-519 -520 521 0
521 -522 0
-518 -521 522 0
522 -523 0
-19 -522 523 0
18 -515 0
-22 -508 0
-21 -508 0
490 -508 0
491 -508 0
22 21 -490 -491 508 0
508 -510 0
494 -509 0
495 -509 0
-494 -495 509 0
509 -510 0
-508 -509 510 0
510 -514 0
499 -511 0
500 -511 0
-499 -500 511 0
511 -513 0
53 -512 0
54 -512 0
503 -512 0
504 -512 0
-53 -54 -503 -504 512 0
512 -513 0
-511 -512 513 0
513 -514 0
-510 -513 514 0
514 -515 0
-18 -514 515 0
-523 -515 -532 0
532 -536 0
-515 533 0
-523 533 0
515 523 -533 0
20 -531 0
-24 -524 0
-21 -524 0
489 -524 0
490 -524 0
24 21 -489 -490 524 0
524 -526 0
493 -525 0
494 -525 0
-493 -494 525 0
525 -526 0
-524 -525 526 0
526 -530 0
498 -527 0
499 -527 0
-498 -499 527 0
527 -529 0
53 -528 0
56 -528 0
502 -528 0
503 -528 0
-53 -56 -502 -503 528 0
528 -529 0
-527 -528 529 0
529 -530 0
-526 -529 530 0
530 -531 0
-20 -530 531 0
-533 -531 -534 0
534 -536 0
531 533 -535 0
535 -536 0
507 536 -537 0
-17 537 -538 0
538 -587 0
-53 -543 0
498 -543 0
55 541 0
-54 -539 0
51 -539 0
54 -51 539 0
-539 541 0
-55 539 -541 0
541 -543 0
56 542 0
-55 -540 0
52 -540 0
55 -52 540 0
-540 542 0
-56 540 -542 0
542 -543 0
543 -547 0
502 -546 0
539 544 0
-55 544 0
-539 55 -544 0
544 -546 0
540 545 0
-56 545 0
-540 56 -545 0
545 -546 0
546 -547 0
547 -555 0
489 -550 0
23 548 0
-19 548 0
-23 19 -548 0
548 -550 0
24 549 0
-20 549 0
-24 20 -549 0
549 -550 0
550 -554 0
21 -553 0
493 -553 0
19 551 0
-23 551 0
-19 23 -551 0
551 -553 0
20 552 0
-24 552 0
-20 24 -552 0
552 -553 0
553 -554 0
554 -555 0
51 -571 0
-55 -564 0
-53 -564 0
498 -564 0
542 -564 0
55 53 -498 -542 564 0
564 -566 0
502 -565 0
545 -565 0
-502 -545 565 0
565 -566 0
-564 -565 566 0
566 -570 0
489 -567 0
549 -567 0
-489 -549 567 0
567 -569 0
21 -568 0
23 -568 0
493 -568 0
552 -568 0
-21 -23 -493 -552 568 0
568 -569 0
-567 -568 569 0
569 -570 0
-566 -569 570 0
570 -571 0
-51 -570 571 0
50 -563 0
-54 -556 0
-53 -556 0
541 -556 0
542 -556 0
54 53 -541 -542 556 0
556 -558 0
544 -557 0
545 -557 0
-544 -545 557 0
557 -558 0
-556 -557 558 0
558 -562 0
548 -559 0
549 -559 0
-548 -549 559 0
559 -561 0
21 -560 0
22 -560 0
551 -560 0
552 -560 0
-21 -22 -551 -552 560 0
560 -561 0
-559 -560 561 0
561 -562 0
-558 -561 562 0
562 -563 0
-50 -562 563 0
-571 -563 -580 0
580 -584 0
-563 581 0
-571 581 0
563 571 -581 0
52 -579 0
-56 -572 0
-53 -572 0
498 -572 0
541 -572 0
56 53 -498 -541 572 0
572 -574 0
502 -573 0
544 -573 0
-502 -544 573 0
573 -574 0
-572 -573 574 0
574 -578 0
489 -575 0
548 -575 0
-489 -548 575 0
575 -577 0
21 -576 0
24 -576 0
493 -576 0
551 -576 0
-21 -24 -493 -551 576 0
576 -577 0
-575 -576 577 0
577 -578 0
-574 -577 578 0
578 -579 0
-52 -578 579 0
-581 -579 -582 0
582 -584 0
579 581 -583 0
583 -584 0
555 584 -585 0
17 585 -586 0
586 -587 0
587 -790 0
-25 -593 0
26 590 0
-22 590 0
-26 22 -590 0
590 -593 0
27 591 0
-26 -588 0
23 -588 0
26 -23 588 0
-588 591 0
-27 588 -591 0
591 -593 0
28 592 0
-27 -589 0
24 -589 0
27 -24 589 0
-589 592 0
-28 589 -592 0
592 -593 0
593 -598 0
22 594 0
-26 594 0
-22 26 -594 0
594 -597 0
588 595 0
-27 595 0
-588 27 -595 0
595 -597 0
589 596 0
-28 596 0
-589 28 -596 0
596 -597 0
597 -598 0
598 -608 0
58 599 0
-54 599 0
-58 54 -599 0
599 -602 0
59 600 0
-55 600 0
-59 55 -600 0
600 -602 0
60 601 0
-56 601 0
-60 56 -601 0
601 -602 0
602 -607 0
57 -606 0
54 603 0
-58 603 0
-54 58 -603 0
603 -606 0
55 604 0
-59 604 0
-55 59 -604 0
604 -606 0
56 605 0
-60 605 0
-56 60 -605 0
605 -606 0
606 -607 0
607 -608 0
23 -624 0
-27 -617 0
-25 -617 0
590 -617 0
592 -617 0
27 25 -590 -592 617 0
617 -619 0
594 -618 0
596 -618 0
-594 -596 618 0
618 -619 0
-617 -618 619 0
619 -623 0
599 -620 0
601 -620 0
-599 -601 620 0
620 -622 0
57 -621 0
59 -621 0
603 -621 0
605 -621 0
-57 -59 -603 -605 621 0
621 -622 0
-620 -621 622 0
622 -623 0
-619 -622 623 0
623 -624 0
-23 -623 624 0
22 -616 0
-26 -609 0
-25 -609 0
591 -609 0
592 -609 0
26 25 -591 -592 609 0
609 -611 0
595 -610 0
596 -610 0
-595 -596 610 0
610 -611 0
-609 -610 611 0
611 -615 0
600 -612 0
601 -612 0
-600 -601 612 0
612 -614 0
57 -613 0
58 -613 0
604 -613 0
605 -613 0
-57 -58 -604 -605 613 0
613 -614 0
-612 -613 614 0
614 -615 0
-611 -614 615 0
615 -616 0
-22 -615 616 0
-624 -616 -633 0
633 -637 0
-616 634 0
-624 634 0
616 624 -634 0
24 -632 0
-28 -625 0
-25 -625 0
590 -625 0
591 -625 0
28 25 -590 -591 625 0
625 -627 0
594 -626 0
595 -626 0
-594 -595 626 0
626 -627 0
-625 -626 627 0
627 -631 0
599 -628 0
600 -628 0
-599 -600 628 0
628 -630 0
57 -629 0
60 -629 0
603 -629 0
604 -629 0
-57 -60 -603 -604 629 0
629 -630 0
-628 -629 630 0
630 -631 0
-627 -630 631 0
631 -632 0
-24 -631 632 0
-634 -632 -635 0
635 -637 0
632 634 -636 0
636 -637 0
608 637 -638 0
-21 638 -639 0
639 -688 0
-57 -644 0
599 -644 0
59 642 0
-58 -640 0
55 -640 0
58 -55 640 0
-640 642 0
-59 640 -642 0
642 -644 0
60 643 0
-59 -641 0
56 -641 0
59 -56 641 0
-641 643 0
-60 641 -643 0
643 -644 0
644 -648 0
603 -647 0
640 645 0
-59 645 0
-640 59 -645 0
645 -647 0
641 646 0
-60 646 0
-641 60 -646 0
646 -647 0
647 -648 0
648 -656 0
590 -651 0
27 649 0
-23 649 0
-27 23 -649 0
649 -651 0
28 650 0
-24 650 0
-28 24 -650 0
650 -651 0
651 -655 0
25 -654 0
594 -654 0
23 652 0
-27 652 0
-23 27 -652 0
652 -654 0
24 653 0
-28 653 0
-24 28 -653 0
653 -654 0
654 -655 0
655 -656 0
55 -672 0
-59 -665 0
-57 -665 0
599 -665 0
643 -665 0
59 57 -599 -643 665 0
665 -667 0
603 -666 0
646 -666 0
-603 -646 666 0
666 -667 0
-665 -666 667 0
667 -671 0
590 -668 0
650 -668 0
-590 -650 668 0
668 -670 0
25 -669 0
27 -669 0
594 -669 0
653 -669 0
-25 -27 -594 -653 669 0
669 -670 0
-668 -669 670 0
670 -671 0
-667 -670 671 0
671 -672 0
-55 -671 672 0
54 -664 0
-58 -657 0
-57 -657 0
642 -657 0
643 -657 0
58 57 -642 -643 657 0
657 -659 0
645 -658 0
646 -658 0
-645 -646 658 0
658 -659 0
-657 -658 659 0
659 -663 0
649 -660 0
650 -660 0
-649 -650 660 0
660 -662 0
25 -661 0
26 -661 0
652 -661 0
653 -661 0
-25 -26 -652 -653 661 0
661 -662 0
-660 -661 662 0
662 -663 0
-659 -662 663 0
663 -664 0
-54 -663 664 0
-672 -664 -681 0
681 -685 0
-664 682 0
-672 682 0
664 672 -682 0
56 -680 0
-60 -673 0
-57 -673 0
599 -673 0
642 -673 0
60 57 -599 -642 673 0
673 -675 0
603 -674 0
645 -674 0
-603 -645 674 0
674 -675 0
-673 -674 675 0
675 -679 0
590 -676 0
649 -676 0
-590 -649 676 0
676 -678 0
25 -677 0
28 -677 0
594 -677 0
652 -677 0
-25 -28 -594 -652 677 0
677 -678 0
-676 -677 678 0
678 -679 0
-675 -678 679 0
679 -680 0
-56 -679 680 0
-682 -680 -683 0
683 -685 0
680 682 -684 0
684 -685 0
656 685 -686 0
21 686 -687 0
687 -688 0
688 -790 0
-29 -694 0
30 691 0
-26 691 0
-30 26 -691 0
691 -694 0
31 692 0
-30 -689 0
27 -689 0
30 -27 689 0
-689 692 0
-31 689 -692 0
692 -694 0
32 693 0
-31 -690 0
28 -690 0
31 -28 690 0
-690 693 0
-32 690 -693 0
693 -694 0
694 -699 0
26 695 0
-30 695 0
-26 30 -695 0
695 -698 0
689 696 0
-31 696 0
-689 31 -696 0
696 -698 0
690 697 0
-32 697 0
-690 32 -697 0
697 -698 0
698 -699 0
699 -709 0
62 700 0
-58 700 0
-62 58 -700 0
700 -703 0
63 701 0
-59 701 0
-63 59 -701 0
701 -703 0
64 702 0
-60 702 0
-64 60 -702 0
702 -703 0
703 -708 0
61 -707 0
58 704 0
-62 704 0
-58 62 -704 0
704 -707 0
59 705 0
-63 705 0
-59 63 -705 0
705 -707 0
60 706 0
-64 706 0
-60 64 -706 0
706 -707 0
707 -708 0
708 -709 0
27 -725 0
-31 -718 0
-29 -718 0
691 -718 0
693 -718 0
31 29 -691 -693 718 0
718 -720 0
695 -719 0
697 -719 0
-695 -697 719 0
719 -720 0
-718 -719 720 0
720 -724 0
700 -721 0
702 -721 0
-700 -702 721 0
721 -723 0
61 -722 0
63 -722 0
704 -722 0
706 -722 0
-61 -63 -704 -706 722 0
722 -723 0
-721 -722 723 0
723 -724 0
-720 -723 724 0
724 -725 0
-27 -724 725 0
26 -717 0
-30 -710 0
-29 -710 0
692 -710 0
693 -710 0
30 29 -692 -693 710 0
710 -712 0
696 -711 0
697 -711 0
-696 -697 711 0
711 -712 0
-710 -711 712 0
712 -716 0
701 -713 0
702 -713 0
-701 -702 713 0
713 -715 0
61 -714 0
62 -714 0
705 -714 0
706 -714 0
-61 -62 -705 -706 714 0
714 -715 0
-713 -714 715 0
715 -716 0
-712 -715 716 0
716 -717 0
-26 -716 717 0
-725 -717 -734 0
734 -738 0
-717 735 0
-725 735 0
717 725 -735 0
28 -733 0
-32 -726 0
-29 -726 0
691 -726 0
692 -726 0
32 29 -691 -692 726 0
726 -728 0
695 -727 0
696 -727 0
-695 -696 727 0
727 -728 0
-726 -727 728 0
728 -732 0
700 -729 0
701 -729 0
-700 -701 729 0
729 -731 0
61 -730 0
64 -730 0
704 -730 0
705 -730 0
-61 -64 -704 -705 730 0
730 -731 0
-729 -730 731 0
731 -732 0
-728 -731 732 0
732 -733 0
-28 -732 733 0
-735 -733 -736 0
736 -738 0
733 735 -737 0
737 -738 0
709 738 -739 0
-25 739 -740 0
740 -789 0
-61 -745 0
700 -745 0
63 743 0
-62 -741 0
59 -741 0
62 -59 741 0
-741 743 0
-63 741 -743 0
743 -745 0
64 744 0
-63 -742 0
60 -742 0
63 -60 742 0
-742 744 0
-64 742 -744 0
744 -745 0
745 -749 0
704 -748 0
741 746 0
-63 746 0
-741 63 -746 0
746 -748 0
742 747 0
-64 747 0
-742 64 -747 0
747 -748 0
748 -749 0
749 -757 0
691 -752 0
31 750 0
-27 750 0
-31 27 -750 0
750 -752 0
32 751 0
-28 751 0
-32 28 -751 0
751 -752 0
752 -756 0
29 -755 0
695 -755 0
27 753 0
-31 753 0
-27 31 -753 0
753 -755 0
28 754 0
-32 754 0
-28 32 -754 0
754 -755 0
755 -756 0
756 -757 0
59 -773 0
-63 -766 0
-61 -766 0
700 -766 0
744 -766 0
63 61 -700 -744 766 0
766 -768 0
704 -767 0
747 -767 0
-704 -747 767 0
767 -768 0
-766 -767 768 0
768 -772 0
691 -769 0
751 -769 0
-691 -751 769 0
769 -771 0
29 -770 0
31 -770 0
695 -770 0
754 -770 0
-29 -31 -695 -754 770 0
770 -771 0
-769 -770 771 0
771 -772 0
-768 -771 772 0
772 -773 0
-59 -772 773 0
58 -765 0
-62 -758 0
-61 -758 0
743 -758 0
744 -758 0
62 61 -743 -744 758 0
758 -760 0
746 -759 0
747 -759 0
-746 -747 759 0
759 -760 0
-758 -759 760 0
760 -764 0
750 -761 0
751 -761 0
-750 -751 761 0
761 -763 0
29 -762 0
30 -762 0
753 -762 0
754 -762 0
-29 -30 -753 -754 762 0
762 -763 0
-761 -762 763 0
763 -764 0
-760 -763 764 0
764 -765 0
-58 -764 765 0
-773 -765 -782 0
782 -786 0
-765 783 0
-773 783 0
765 773 -783 0
60 -781 0
-64 -774 0
-61 -774 0
700 -774 0
743 -774 0
64 61 -700 -743 774 0
774 -776 0
704 -775 0
746 -775 0
-704 -746 775 0
775 -776 0
-774 -775 776 0
776 -780 0
691 -777 0
750 -777 0
-691 -750 777 0
777 -779 0
29 -778 0
32 -778 0
695 -778 0
753 -778 0
-29 -32 -695 -753 778 0
778 -779 0
-777 -778 779 0
779 -780 0
-776 -779 780 0
780 -781 0
-60 -780 781 0
-783 -781 -784 0
784 -786 0
781 783 -785 0
785 -786 0
757 786 -787 0
25 787 -788 0
788 -789 0
789 -790 0
61 -791 0
62 -791 0
63 -791 0
64 -791 0
82 0
790 0
791 0
